400
75 75
1 52 891
2 52 755
3 52 348
4 52 32
5 52 983
6 52 620
7 52 176
8 52 386
9 52 736
10 52 97
11 51 865
12 51 461
13 51 300
14 51 292
15 51 275
16 51 91
17 51 867
18 51 645
19 51 404
20 51 738
21 51 578
22 51 938
23 51 629
24 51 348
25 50 168
26 50 74
27 50 593
28 50 785
29 50 60
30 50 241
31 50 27
32 50 589
33 50 358
34 50 178
35 50 982
36 50 167
37 50 494
38 49 814
39 49 165
40 49 763
41 49 71
42 49 614
43 49 993
44 49 95
45 49 960
46 49 409
47 49 436
48 49 168
49 49 594
50 48 256
51 48 796
52 48 889
53 48 352
54 48 440
55 48 535
56 48 876
57 48 505
58 48 403
59 48 198
60 48 499
61 48 904
62 48 774
63 48 347
64 47 297
65 47 19
66 47 422
67 47 542
68 47 597
69 47 629
70 47 89
71 47 998
72 47 498
73 47 178
74 47 641
75 47 920
76 47 143
77 47 292
78 47 423
79 46 137
80 46 145
81 46 726
82 46 862
83 46 565
84 46 453
85 46 70
86 46 27
87 46 232
88 46 64
89 46 44
90 46 713
91 46 448
92 46 947
93 46 487
94 46 100
95 46 23
96 46 267
97 45 486
98 45 272
99 45 66
100 45 341
101 45 904
102 45 967
103 45 684
104 45 2
105 45 333
106 45 234
107 44 238
108 44 767
109 44 47
110 44 778
111 44 179
112 44 666
113 44 755
114 44 996
115 43 945
116 43 887
117 43 576
118 43 314
119 43 788
120 43 779
121 43 958
122 43 371
123 43 711
124 43 959
125 43 113
126 43 186
127 42 43
128 42 419
129 42 45
130 42 154
131 42 642
132 42 266
133 42 31
134 41 635
135 41 670
136 41 124
137 41 957
138 41 960
139 41 34
140 41 322
141 41 185
142 41 683
143 41 533
144 40 602
145 40 73
146 40 752
147 40 991
148 40 85
149 40 112
150 40 622
151 39 370
152 39 996
153 39 785
154 39 104
155 39 478
156 39 36
157 39 144
158 39 384
159 39 836
160 39 294
161 39 708
162 39 739
163 39 320
164 38 331
165 38 148
166 38 338
167 38 659
168 38 97
169 38 997
170 38 345
171 38 170
172 38 245
173 38 724
174 37 145
175 37 92
176 37 636
177 37 391
178 37 743
179 37 115
180 37 61
181 37 638
182 36 874
183 36 375
184 36 197
185 36 259
186 36 121
187 36 147
188 36 598
189 36 421
190 36 658
191 36 76
192 36 162
193 36 220
194 36 426
195 36 17
196 35 592
197 35 711
198 35 298
199 35 860
200 35 632
201 35 121
202 35 131
203 35 390
204 35 750
205 35 9
206 35 401
207 35 890
208 35 843
209 35 468
210 35 993
211 35 853
212 34 815
213 34 584
214 34 583
215 34 700
216 34 737
217 34 395
218 34 331
219 34 726
220 33 674
221 33 255
222 33 462
223 33 601
224 33 783
225 33 42
226 33 263
227 33 970
228 33 671
229 33 310
230 33 870
231 33 736
232 33 735
233 33 509
234 33 258
235 33 37
236 33 539
237 33 535
238 32 41
239 32 646
240 32 637
241 32 324
242 32 113
243 32 107
244 32 802
245 32 82
246 32 15
247 31 903
248 31 320
249 31 919
250 31 393
251 31 78
252 31 322
253 31 226
254 31 341
255 31 333
256 30 270
257 30 89
258 30 594
259 30 501
260 30 186
261 30 897
262 30 481
263 30 373
264 30 953
265 30 10
266 30 781
267 30 28
268 30 813
269 30 615
270 30 338
271 30 833
272 29 848
273 29 592
274 29 76
275 29 469
276 28 877
277 28 844
278 28 58
279 28 773
280 28 193
281 28 171
282 28 253
283 28 857
284 28 981
285 28 216
286 28 642
287 28 22
288 27 802
289 27 848
290 27 224
291 27 126
292 27 665
293 27 535
294 27 756
295 26 45
296 26 947
297 26 741
298 26 659
299 26 487
300 25 543
301 25 979
302 25 426
303 25 746
304 25 185
305 25 393
306 25 27
307 25 778
308 25 906
309 25 908
310 24 15
311 24 140
312 24 273
313 24 996
314 24 345
315 24 922
316 24 596
317 24 336
318 24 707
319 24 806
320 24 47
321 24 934
322 23 610
323 23 672
324 23 776
325 23 677
326 23 975
327 23 432
328 23 101
329 23 360
330 22 274
331 22 966
332 22 590
333 22 686
334 22 90
335 22 672
336 21 424
337 21 814
338 21 44
339 21 487
340 21 209
341 21 62
342 21 79
343 21 200
344 21 253
345 21 408
346 21 13
347 20 217
348 20 904
349 20 472
350 20 292
351 20 13
352 20 246
353 20 889
354 20 580
355 20 935
356 20 608
357 20 270
358 19 580
359 19 404
360 19 26
361 19 818
362 19 54
363 19 195
364 18 287
365 18 958
366 18 150
367 18 694
368 18 945
369 18 448
370 18 85
371 18 611
372 17 774
373 17 538
374 17 14
375 17 216
376 17 610
377 17 440
378 16 933
379 16 359
380 16 595
381 16 692
382 16 154
383 16 927
384 16 746
385 16 780
386 16 870
387 16 411
388 16 373
389 16 179
390 15 143
391 15 661
392 15 186
393 15 227
394 15 722
395 15 973
396 15 125
397 15 8
398 15 531
399 15 839
400 15 7
